NAME          
ROWS
 N  OBJ
 L  c1
 L  c2
 L  c3
 L  c4
COLUMNS
    MARKER    'MARKER'                 'INTORG'
    x[1]      c1        50
    x[1]      c2        341
    x[1]      c3        105
    x[1]      c4        719
    x[1]      OBJ       -884
    x[2]      c1        964
    x[2]      c2        564
    x[2]      c3        46
    x[2]      c4        68
    x[2]      OBJ       -642
    x[3]      c1        232
    x[3]      c2        840
    x[3]      c3        553
    x[3]      c4        478
    x[3]      OBJ       -376
    x[4]      c1        866
    x[4]      c2        729
    x[4]      c3        995
    x[4]      c4        848
    x[4]      OBJ       -375
    x[5]      c1        17
    x[5]      c2        26
    x[5]      c3        964
    x[5]      c4        884
    x[5]      OBJ       -825
    x[6]      c1        320
    x[6]      c2        737
    x[6]      c3        285
    x[6]      c4        44
    x[6]      OBJ       -793
    x[7]      c1        554
    x[7]      c2        9
    x[7]      c3        18
    x[7]      c4        318
    x[7]      OBJ       -706
    x[8]      c1        598
    x[8]      c2        764
    x[8]      c3        956
    x[8]      c4        22
    x[8]      OBJ       -797
    x[9]      c1        556
    x[9]      c2        729
    x[9]      c3        604
    x[9]      c4        278
    x[9]      OBJ       -61
    x[10]     c1        46
    x[10]     c2        249
    x[10]     c3        176
    x[10]     c4        298
    x[10]     OBJ       -716
    x[11]     c1        47
    x[11]     c2        266
    x[11]     c3        996
    x[11]     c4        52
    x[11]     OBJ       -943
    x[12]     c1        779
    x[12]     c2        620
    x[12]     c3        28
    x[12]     c4        684
    x[12]     OBJ       -595
    x[13]     c1        392
    x[13]     c2        400
    x[13]     c3        927
    x[13]     c4        697
    x[13]     OBJ       -810
    x[14]     c1        168
    x[14]     c2        931
    x[14]     c3        611
    x[14]     c4        182
    x[14]     OBJ       -817
    x[15]     c1        255
    x[15]     c2        209
    x[15]     c3        903
    x[15]     c4        724
    x[15]     OBJ       -15
    x[16]     c1        953
    x[16]     c2        475
    x[16]     c3        853
    x[16]     c4        926
    x[16]     OBJ       -571
    x[17]     c1        448
    x[17]     c2        920
    x[17]     c3        802
    x[17]     c4        491
    x[17]     OBJ       -371
    x[18]     c1        236
    x[18]     c2        44
    x[18]     c3        109
    x[18]     c4        893
    x[18]     OBJ       -15
    x[19]     c1        973
    x[19]     c2        350
    x[19]     c3        881
    x[19]     c4        100
    x[19]     OBJ       -562
    x[20]     c1        541
    x[20]     c2        508
    x[20]     c3        586
    x[20]     c4        697
    x[20]     OBJ       -805
    x[21]     c1        929
    x[21]     c2        185
    x[21]     c3        861
    x[21]     c4        938
    x[21]     OBJ       -716
    x[22]     c1        315
    x[22]     c2        517
    x[22]     c3        454
    x[22]     c4        343
    x[22]     OBJ       -236
    x[23]     c1        919
    x[23]     c2        206
    x[23]     c3        9
    x[23]     c4        674
    x[23]     OBJ       -832
    x[24]     c1        443
    x[24]     c2        702
    x[24]     c3        881
    x[24]     c4        981
    x[24]     OBJ       -604
    x[25]     c1        27
    x[25]     c2        102
    x[25]     c3        183
    x[25]     c4        501
    x[25]     OBJ       -159
    x[26]     c1        106
    x[26]     c2        100
    x[26]     c3        193
    x[26]     c4        666
    x[26]     OBJ       -180
    x[27]     c1        154
    x[27]     c2        819
    x[27]     c3        459
    x[27]     c4        483
    x[27]     OBJ       -743
    x[28]     c1        132
    x[28]     c2        654
    x[28]     c3        739
    x[28]     c4        115
    x[28]     OBJ       -440
    x[29]     c1        699
    x[29]     c2        360
    x[29]     c3        692
    x[29]     c4        353
    x[29]     OBJ       -382
    x[30]     c1        590
    x[30]     c2        812
    x[30]     c3        702
    x[30]     c4        739
    x[30]     OBJ       -300
    x[31]     c1        385
    x[31]     c2        507
    x[31]     c3        699
    x[31]     c4        190
    x[31]     OBJ       -361
    x[32]     c1        937
    x[32]     c2        542
    x[32]     c3        528
    x[32]     c4        736
    x[32]     OBJ       -313
    x[33]     c1        600
    x[33]     c2        432
    x[33]     c3        985
    x[33]     c4        735
    x[33]     OBJ       -167
    x[34]     c1        459
    x[34]     c2        308
    x[34]     c3        593
    x[34]     c4        153
    x[34]     OBJ       -145
    x[35]     c1        986
    x[35]     c2        808
    x[35]     c3        449
    x[35]     c4        301
    x[35]     OBJ       -616
RHS
    rhs       c1        8338
    rhs       c2        8382
    rhs       c3        9912
    rhs       c4        8656
RANGES
BOUNDS
 BV bounds    x[1]
 BV bounds    x[2]
 BV bounds    x[3]
 BV bounds    x[4]
 BV bounds    x[5]
 BV bounds    x[6]
 BV bounds    x[7]
 BV bounds    x[8]
 BV bounds    x[9]
 BV bounds    x[10]
 BV bounds    x[11]
 BV bounds    x[12]
 BV bounds    x[13]
 BV bounds    x[14]
 BV bounds    x[15]
 BV bounds    x[16]
 BV bounds    x[17]
 BV bounds    x[18]
 BV bounds    x[19]
 BV bounds    x[20]
 BV bounds    x[21]
 BV bounds    x[22]
 BV bounds    x[23]
 BV bounds    x[24]
 BV bounds    x[25]
 BV bounds    x[26]
 BV bounds    x[27]
 BV bounds    x[28]
 BV bounds    x[29]
 BV bounds    x[30]
 BV bounds    x[31]
 BV bounds    x[32]
 BV bounds    x[33]
 BV bounds    x[34]
 BV bounds    x[35]
ENDATA
